<number of tasks>
58

<cycle time>
58

<task times>
1 10
2 53
3 41
4 36
5 35
6 17
7 34
8 23
9 14
10 52
11 33
12 34
13 12
14 52
15 12
16 33
17 44
18 7
19 15
20 13
21 29
22 37
23 43
24 23
25 24
26 9
27 16
28 12
29 26
30 22
31 51
32 47
33 34
34 23
35 12
36 52
37 12
38 33
39 44
40 7
41 15
42 13
43 29
44 37
45 43
46 23
47 24
48 9
49 16
50 12
51 26
52 12
53 52
54 12
55 33
56 44
57 7
58 15

<precedence relations>
1,9
2,25
3,21
3,22
4,10
5,36
6,23
6,24
7,43
8,44
9,11
11,13
11,14
11,15
12,17
13,17
14,17
15,17
16,18
17,20
18,19
19,23
20,21
20,25
21,26
21,44
22,27
23,31
24,31
25,38
26,29
27,30
28,32
28,33
29,31
30,34
31,36
32,45
33,35
34,36
35,43
36,37
36,38
37,39
37,40
37,41
38,52
39,43
40,43
41,42
42,43
43,45
44,45
45,46
45,48
45,49
46,47
46,50
47,51
48,55
49,58
50,58
51,52
52,53
53,54
54,55
54,56
55,57
56,57
57,58

<setup times forward>
1,2:6
1,3:8
1,4:10
1,5:8
1,6:8
1,7:2
1,8:3
1,10:9
1,16:3
1,18:2
1,19:4
1,22:4
1,23:7
1,24:9
1,27:1
1,28:3
1,30:10
1,32:2
1,33:6
1,34:8
1,35:6
2,1:6
2,3:2
2,4:16
2,5:2
2,6:2
2,7:8
2,8:9
2,9:6
2,10:15
2,11:3
2,12:6
2,13:1
2,14:6
2,15:13
2,16:9
2,17:1
2,18:4
2,19:10
2,20:9
2,21:9
2,22:10
2,23:13
2,24:15
2,25:8
2,26:15
2,27:7
2,28:3
2,29:15
2,30:16
2,31:4
2,32:4
2,34:2
2,36:4
2,39:1
2,40:1
2,41:13
2,42:13
2,43:13
2,44:7
2,45:1
2,46:9
2,47:9
2,48:9
2,49:8
2,50:14
2,51:14
3,1:8
3,2:2
3,4:18
3,7:10
3,8:11
3,9:8
3,10:17
3,11:5
3,12:8
3,13:3
3,14:8
3,15:15
3,16:11
3,17:3
3,18:6
3,19:12
3,20:11
3,21:11
3,22:12
3,23:15
3,24:17
3,25:10
3,28:5
3,32:6
3,33:2
3,35:2
4,1:10
4,2:16
4,3:18
4,5:18
4,6:18
4,7:8
4,8:7
4,9:10
4,10:1
4,11:13
4,12:10
4,13:15
4,14:10
4,15:3
4,16:7
4,17:15
4,18:12
4,19:6
4,20:7
4,21:7
4,22:6
4,23:3
4,24:1
4,25:8
4,26:1
4,27:9
4,28:13
4,29:1
4,31:12
4,32:12
4,33:16
4,34:18
4,35:16
4,36:12
4,37:16
4,38:8
4,39:15
4,40:15
4,41:3
4,42:3
4,43:3
4,44:9
4,45:15
4,46:7
4,47:7
4,48:7
4,49:8
4,50:2
4,51:2
4,52:2
4,53:1
4,54:12
4,55:1
4,56:12
4,57:1
4,58:1
5,1:8
5,2:2
5,4:18
5,7:10
5,8:11
5,9:8
5,10:17
5,11:5
5,12:8
5,13:3
5,14:8
5,15:15
5,16:11
5,17:3
5,18:6
5,19:12
5,20:11
5,21:11
5,22:12
5,23:15
5,24:17
5,25:10
5,26:17
5,27:9
5,28:5
5,29:17
5,30:18
5,31:6
5,32:6
5,33:2
5,35:2
5,36:6
5,44:9
6,1:8
6,2:2
6,4:18
6,7:10
6,8:11
6,9:8
6,10:17
6,11:5
6,12:8
6,13:3
6,14:8
6,15:15
6,16:11
6,17:3
6,18:6
6,19:12
6,20:11
6,21:11
6,22:12
6,23:15
6,24:17
6,25:10
6,26:17
6,27:9
6,28:5
6,29:17
6,30:18
6,32:6
6,33:2
6,35:2
6,44:9
7,1:2
7,2:8
7,3:10
7,4:8
7,5:10
7,6:10
7,8:1
7,9:2
7,10:7
7,11:5
7,12:2
7,13:7
7,14:2
7,15:5
7,16:1
7,17:7
7,18:4
7,19:2
7,20:1
7,21:1
7,22:2
7,23:5
7,24:7
7,26:7
7,27:1
7,28:5
7,29:7
7,30:8
7,31:4
7,32:4
7,33:8
7,34:10
7,35:8
7,36:4
7,37:8
7,39:7
7,40:7
7,41:5
7,42:5
7,43:5
7,44:1
8,1:3
8,2:9
8,3:11
8,4:7
8,5:11
8,6:11
8,7:1
8,9:3
8,10:6
8,11:6
8,12:3
8,13:8
8,14:3
8,15:4
8,17:8
8,18:5
8,19:1
8,22:1
8,23:4
8,24:6
8,25:1
8,26:6
8,27:2
8,28:6
8,29:6
8,30:7
8,31:5
8,32:5
8,33:9
8,34:11
8,35:9
8,36:5
8,37:9
8,38:1
8,39:8
8,40:8
8,41:4
8,42:4
8,43:4
8,44:2
9,2:6
9,3:8
9,4:10
9,5:8
9,6:8
9,7:2
9,8:3
9,10:9
9,11:3
9,16:3
9,18:2
9,19:4
9,22:4
9,23:7
9,24:9
9,27:1
9,28:3
9,30:10
9,32:2
9,33:6
9,34:8
9,35:6
10,1:9
10,2:15
10,3:17
10,5:17
10,6:17
10,7:7
10,8:6
10,9:9
10,11:12
10,12:9
10,13:14
10,14:9
10,15:2
10,16:6
10,17:14
10,18:11
10,19:5
10,20:6
10,21:6
10,22:5
10,23:2
10,25:7
10,27:8
10,28:12
10,30:1
10,31:11
10,32:11
10,33:15
10,34:17
10,35:15
10,36:11
10,37:15
10,38:7
10,39:14
10,40:14
10,41:2
10,42:2
10,43:2
10,44:8
10,45:14
10,46:6
10,47:6
10,48:6
10,49:7
10,50:1
10,51:1
10,52:1
10,53:2
10,54:11
10,56:11
11,2:3
11,3:5
11,4:13
11,5:5
11,6:5
11,7:5
11,8:6
11,10:12
11,12:3
11,13:2
11,14:3
11,15:10
11,16:6
11,18:1
11,19:7
11,22:7
11,23:10
11,24:12
11,27:4
11,30:13
11,32:1
11,33:3
11,34:5
11,35:3
12,2:6
12,3:8
12,4:10
12,5:8
12,6:8
12,7:2
12,8:3
12,10:9
12,11:3
12,13:5
12,15:7
12,16:3
12,17:5
12,18:2
12,19:4
12,22:4
12,23:7
12,24:9
12,27:1
12,28:3
12,30:10
12,32:2
12,33:6
12,34:8
12,35:6
13,2:1
13,3:3
13,4:15
13,5:3
13,6:3
13,7:7
13,8:8
13,10:14
13,12:5
13,14:5
13,15:12
13,16:8
13,18:3
13,19:9
13,22:9
13,23:12
13,24:14
13,27:6
13,28:2
13,30:15
13,32:3
13,33:1
13,34:3
13,35:1
14,2:6
14,3:8
14,4:10
14,5:8
14,6:8
14,7:2
14,8:3
14,10:9
14,13:5
14,15:7
14,16:3
14,17:5
14,18:2
14,19:4
14,22:4
14,23:7
14,24:9
14,27:1
14,28:3
14,30:10
14,32:2
14,33:6
14,34:8
14,35:6
15,2:13
15,3:15
15,4:3
15,5:15
15,6:15
15,7:5
15,8:4
15,10:2
15,12:7
15,13:12
15,14:7
15,16:4
15,17:12
15,18:9
15,19:3
15,22:3
15,24:2
15,27:6
15,28:10
15,30:3
15,32:9
15,33:13
15,34:15
15,35:13
16,1:3
16,2:9
16,3:11
16,4:7
16,5:11
16,6:11
16,7:1
16,9:3
16,10:6
16,11:6
16,12:3
16,13:8
16,14:3
16,15:4
16,17:8
16,18:5
16,22:1
16,24:6
16,25:1
16,26:6
16,27:2
16,28:6
16,29:6
16,30:7
16,32:5
16,33:9
16,34:11
16,35:9
16,44:2
17,2:1
17,3:3
17,4:15
17,5:3
17,6:3
17,7:7
17,8:8
17,10:14
17,16:8
17,18:3
17,19:9
17,20:8
17,22:9
17,23:12
17,24:14
17,27:6
17,28:2
17,30:15
17,32:3
17,33:1
17,34:3
17,35:1
18,1:2
18,2:4
18,3:6
18,4:12
18,5:6
18,6:6
18,7:4
18,8:5
18,9:2
18,10:11
18,11:1
18,12:2
18,13:3
18,14:2
18,15:9
18,17:3
18,19:6
18,20:5
18,21:5
18,22:6
18,24:11
18,25:4
18,26:11
18,27:3
18,28:1
18,29:11
18,30:12
18,33:4
18,34:6
18,35:4
18,44:3
19,1:4
19,2:10
19,3:12
19,4:6
19,5:12
19,6:12
19,7:2
19,8:1
19,9:4
19,10:5
19,11:7
19,12:4
19,13:9
19,14:4
19,15:3
19,17:9
19,20:1
19,21:1
19,23:3
19,24:5
19,25:2
19,26:5
19,27:3
19,28:7
19,29:5
19,30:6
19,32:6
19,33:10
19,34:12
19,35:10
19,44:3
20,2:9
20,3:11
20,4:7
20,5:11
20,6:11
20,7:1
20,10:6
20,18:5
20,19:1
20,22:1
20,23:4
20,24:6
20,25:1
20,27:2
20,28:6
20,30:7
20,32:5
20,33:9
20,34:11
20,35:9
21,2:9
21,4:7
21,5:11
21,6:11
21,7:1
21,10:6
21,18:5
21,19:1
21,22:1
21,23:4
21,24:6
21,25:1
21,26:6
21,27:2
21,28:6
21,30:7
21,32:5
21,33:9
21,34:11
21,35:9
21,44:2
22,1:4
22,2:10
22,4:6
22,5:12
22,6:12
22,7:2
22,8:1
22,9:4
22,10:5
22,11:7
22,12:4
22,13:9
22,14:4
22,15:3
22,16:1
22,17:9
22,18:6
22,20:1
22,21:1
22,23:3
22,24:5
22,25:2
22,26:5
22,27:3
22,28:7
22,29:5
22,31:6
22,32:6
22,33:10
22,35:10
22,44:3
23,1:7
23,2:13
23,3:15
23,4:3
23,5:15
23,7:5
23,8:4
23,9:7
23,10:2
23,11:10
23,12:7
23,13:12
23,14:7
23,17:12
23,20:4
23,21:4
23,22:3
23,24:2
23,25:5
23,26:2
23,27:6
23,28:10
23,29:2
23,30:3
23,31:9
23,32:9
23,33:13
23,34:15
23,35:13
23,44:6
24,1:9
24,2:15
24,3:17
24,4:1
24,5:17
24,7:7
24,8:6
24,9:9
24,11:12
24,12:9
24,13:14
24,14:9
24,15:2
24,16:6
24,17:14
24,18:11
24,19:5
24,20:6
24,21:6
24,22:5
24,23:2
24,25:7
24,27:8
24,28:12
24,30:1
24,31:11
24,32:11
24,33:15
24,34:17
24,35:15
24,44:8
25,3:10
25,4:8
25,5:10
25,6:10
25,8:1
25,10:7
25,16:1
25,18:4
25,19:2
25,21:1
25,22:2
25,23:5
25,24:7
25,26:7
25,27:1
25,28:5
25,29:7
25,30:8
25,31:4
25,32:4
25,33:8
25,34:10
25,35:8
25,36:4
25,37:8
25,39:7
25,40:7
25,41:5
25,42:5
25,43:5
25,44:1
25,45:7
25,46:1
25,47:1
25,48:1
25,50:6
25,51:6
26,2:15
26,4:1
26,5:17
26,6:17
26,7:7
26,8:6
26,16:6
26,18:11
26,19:5
26,22:5
26,23:2
26,25:7
26,27:8
26,28:12
26,30:1
26,32:11
26,33:15
26,34:17
26,35:15
26,44:8
27,1:1
27,2:7
27,4:9
27,5:9
27,6:9
27,7:1
27,8:2
27,9:1
27,10:8
27,11:4
27,12:1
27,13:6
27,14:1
27,15:6
27,16:2
27,17:6
27,18:3
27,19:3
27,20:2
27,21:2
27,23:6
27,24:8
27,25:1
27,26:8
27,28:4
27,29:8
27,30:9
27,31:3
27,32:3
27,33:7
27,35:7
28,1:3
28,2:3
28,3:5
28,4:13
28,5:5
28,6:5
28,7:5
28,8:6
28,9:3
28,10:12
28,12:3
28,13:2
28,14:3
28,15:10
28,16:6
28,17:2
28,18:1
28,19:7
28,20:6
28,21:6
28,22:7
28,23:10
28,24:12
28,25:5
28,26:12
28,27:4
28,29:12
28,30:13
28,31:1
28,32:1
28,33:3
28,34:5
28,36:1
28,37:3
28,38:5
28,39:2
28,40:2
28,41:10
28,42:10
28,44:4
29,2:15
29,4:1
29,5:17
29,6:17
29,7:7
29,8:6
29,16:6
29,18:11
29,19:5
29,22:5
29,23:2
29,25:7
29,27:8
29,28:12
29,30:1
29,31:11
29,32:11
29,33:15
29,34:17
29,35:15
29,44:8
30,1:10
30,2:16
30,5:18
30,6:18
30,7:8
30,8:7
30,9:10
30,10:1
30,11:13
30,12:10
30,13:15
30,14:10
30,15:3
30,16:7
30,17:15
30,18:12
30,19:6
30,20:7
30,21:7
30,23:3
30,24:1
30,25:8
30,26:1
30,28:13
30,29:1
30,31:12
30,32:12
30,33:16
30,34:18
30,35:16
30,44:9
31,2:4
31,4:12
31,5:6
31,7:4
31,8:5
31,10:11
31,22:6
31,25:4
31,27:3
31,28:1
31,30:12
31,33:4
31,34:6
31,35:4
31,44:3
32,1:2
32,2:4
32,3:6
32,4:12
32,5:6
32,6:6
32,7:4
32,8:5
32,9:2
32,10:11
32,11:1
32,12:2
32,13:3
32,14:2
32,15:9
32,16:5
32,17:3
32,19:6
32,20:5
32,21:5
32,22:6
32,23:9
32,24:11
32,25:4
32,26:11
32,27:3
32,29:11
32,30:12
32,33:4
32,34:6
32,35:4
32,37:4
32,38:4
32,39:3
32,40:3
32,41:9
32,42:9
32,43:9
32,44:3
32,45:3
33,1:6
33,3:2
33,4:16
33,5:2
33,6:2
33,7:8
33,8:9
33,9:6
33,10:15
33,11:3
33,12:6
33,13:1
33,14:6
33,15:13
33,16:9
33,17:1
33,18:4
33,19:10
33,20:9
33,21:9
33,22:10
33,23:13
33,24:15
33,25:8
33,26:15
33,27:7
33,29:15
33,30:16
33,31:4
33,32:4
33,34:2
33,36:4
33,38:8
33,39:1
33,40:1
33,41:13
33,42:13
33,44:7
34,1:8
34,2:2
34,4:18
34,7:10
34,8:11
34,9:8
34,10:17
34,11:5
34,12:8
34,13:3
34,14:8
34,15:15
34,16:11
34,17:3
34,18:6
34,19:12
34,20:11
34,21:11
34,23:15
34,24:17
34,25:10
34,26:17
34,28:5
34,29:17
34,31:6
34,32:6
34,33:2
34,35:2
34,36:6
34,44:9
35,1:6
35,3:2
35,4:16
35,5:2
35,6:2
35,7:8
35,8:9
35,9:6
35,10:15
35,11:3
35,12:6
35,13:1
35,14:6
35,15:13
35,16:9
35,17:1
35,18:4
35,19:10
35,20:9
35,21:9
35,22:10
35,23:13
35,24:15
35,25:8
35,26:15
35,27:7
35,29:15
35,30:16
35,31:4
35,32:4
35,34:2
35,36:4
35,38:8
35,39:1
35,40:1
35,41:13
35,42:13
35,43:13
35,44:7
36,2:4
36,4:12
36,7:4
36,8:5
36,10:11
36,25:4
36,28:1
36,33:4
36,35:4
36,37:4
36,38:4
36,44:3
37,4:16
37,7:8
37,8:9
37,10:15
37,25:8
37,28:3
37,32:4
37,38:8
37,39:1
37,40:1
37,41:13
37,44:7
38,4:8
38,8:1
38,10:7
38,28:5
38,32:4
38,33:8
38,35:8
38,37:8
38,39:7
38,40:7
38,41:5
38,42:5
38,43:5
38,44:1
38,45:7
38,46:1
38,47:1
38,48:1
38,50:6
38,51:6
38,52:6
39,2:1
39,4:15
39,7:7
39,8:8
39,10:14
39,25:7
39,28:2
39,32:3
39,33:1
39,35:1
39,38:7
39,41:12
39,42:12
39,43:12
39,44:6
40,2:1
40,4:15
40,7:7
40,8:8
40,10:14
40,25:7
40,28:2
40,32:3
40,33:1
40,35:1
40,38:7
40,41:12
40,42:12
40,43:12
40,44:6
41,2:13
41,4:3
41,7:5
41,8:4
41,10:2
41,25:5
41,28:10
41,32:9
41,33:13
41,35:13
41,38:5
41,39:12
41,40:12
41,44:6
42,2:13
42,4:3
42,7:5
42,8:4
42,10:2
42,25:5
42,28:10
42,32:9
42,33:13
42,35:13
42,38:5
42,39:12
42,40:12
42,44:6
43,2:13
43,4:3
43,8:4
43,10:2
43,25:5
43,32:9
43,38:5
43,44:6
43,45:12
44,2:7
44,4:9
44,5:9
44,6:9
44,7:1
44,10:8
44,16:2
44,18:3
44,19:3
44,22:3
44,23:6
44,24:8
44,25:1
44,26:8
44,28:4
44,29:8
44,30:9
44,31:3
44,32:3
44,33:7
44,34:9
44,35:7
44,36:3
44,37:7
44,38:1
44,39:6
44,40:6
44,41:6
44,42:6
44,43:6
44,45:6
45,2:1
45,4:15
45,10:14
45,25:7
45,38:7
45,46:8
45,48:8
45,49:7
46,2:9
46,4:7
46,10:6
46,25:1
46,38:1
46,49:1
46,50:5
47,2:9
47,4:7
47,10:6
47,25:1
47,38:1
47,49:1
47,50:5
47,51:5
48,2:9
48,4:7
48,10:6
48,25:1
48,38:1
48,49:1
48,50:5
48,51:5
48,52:5
48,53:8
48,54:5
48,55:6
48,56:5
49,2:8
49,4:8
49,10:7
49,46:1
49,47:1
49,48:1
49,50:6
49,51:6
49,52:6
49,53:9
49,54:4
49,55:7
49,56:4
49,57:7
49,58:7
50,2:14
50,4:2
50,10:1
50,25:6
50,38:6
50,47:5
50,48:5
50,49:6
50,53:3
50,54:10
50,55:1
50,56:10
50,57:1
50,58:1
51,2:14
51,4:2
51,10:1
51,25:6
51,38:6
51,48:5
51,49:6
52,4:2
52,10:1
52,48:5
52,49:6
52,53:3
53,4:1
53,10:2
53,48:8
53,49:9
53,50:3
53,54:13
54,4:12
54,10:11
54,48:5
54,49:4
54,50:10
54,55:11
55,4:1
55,49:7
55,50:1
55,56:11
56,4:12
56,10:11
56,48:5
56,49:4
56,50:10
56,55:11
56,57:11
57,4:1
57,49:7
57,50:1
58,4:1

<setup times backward>
1,4:10
1,7:2
1,8:3
1,10:9
1,16:3
1,19:4
1,22:4
1,23:7
1,24:9
1,27:1
1,30:10
2,1:6
2,4:16
2,7:8
2,8:9
2,9:6
2,10:15
2,11:3
2,12:6
2,13:1
2,14:6
2,15:13
2,16:9
2,17:1
2,18:4
2,19:10
2,20:9
2,21:9
2,22:10
2,23:13
2,24:15
2,26:15
2,27:7
2,28:3
2,29:15
2,30:16
2,31:4
2,32:4
2,36:4
2,39:1
2,40:1
2,41:13
2,42:13
2,43:13
2,44:7
2,45:1
2,46:9
2,47:9
2,48:9
2,49:8
2,50:14
2,51:14
3,1:8
3,2:2
3,4:18
3,7:10
3,8:11
3,9:8
3,10:17
3,11:5
3,12:8
3,13:3
3,14:8
3,15:15
3,16:11
3,17:3
3,18:6
3,19:12
3,20:11
3,23:15
3,24:17
3,25:10
3,28:5
3,32:6
3,33:2
3,35:2
4,53:1
5,1:8
5,2:2
5,4:18
5,7:10
5,8:11
5,9:8
5,10:17
5,11:5
5,12:8
5,13:3
5,14:8
5,15:15
5,16:11
5,17:3
5,18:6
5,19:12
5,20:11
5,21:11
5,22:12
5,23:15
5,24:17
5,25:10
5,26:17
5,27:9
5,28:5
5,29:17
5,30:18
5,31:6
5,32:6
5,33:2
5,35:2
5,44:9
6,1:8
6,2:2
6,4:18
6,7:10
6,8:11
6,9:8
6,10:17
6,11:5
6,12:8
6,13:3
6,14:8
6,15:15
6,16:11
6,17:3
6,18:6
6,19:12
6,20:11
6,21:11
6,22:12
6,25:10
6,26:17
6,27:9
6,28:5
6,29:17
6,30:18
6,32:6
6,33:2
6,35:2
6,44:9
7,4:8
7,8:1
7,10:7
7,15:5
7,16:1
7,19:2
7,20:1
7,21:1
7,22:2
7,23:5
7,24:7
7,26:7
7,29:7
7,30:8
7,41:5
7,42:5
8,4:7
8,10:6
8,15:4
8,19:1
8,22:1
8,23:4
8,24:6
8,26:6
8,29:6
8,30:7
8,41:4
8,42:4
8,43:4
9,4:10
9,7:2
9,8:3
9,10:9
9,16:3
9,19:4
9,22:4
9,23:7
9,24:9
9,27:1
9,30:10
10,4:1
10,30:1
10,53:2
11,1:3
11,4:13
11,7:5
11,8:6
11,9:3
11,10:12
11,12:3
11,16:6
11,18:1
11,19:7
11,22:7
11,23:10
11,24:12
11,27:4
11,30:13
11,32:1
12,4:10
12,7:2
12,8:3
12,10:9
12,15:7
12,16:3
12,19:4
12,22:4
12,23:7
12,24:9
12,27:1
12,30:10
13,1:5
13,4:15
13,7:7
13,8:8
13,9:5
13,10:14
13,11:2
13,12:5
13,14:5
13,15:12
13,16:8
13,18:3
13,19:9
13,22:9
13,23:12
13,24:14
13,27:6
13,28:2
13,30:15
13,32:3
14,4:10
14,7:2
14,8:3
14,10:9
14,15:7
14,16:3
14,19:4
14,22:4
14,23:7
14,24:9
14,27:1
14,30:10
15,4:3
15,10:2
15,24:2
15,30:3
16,4:7
16,10:6
16,15:4
16,22:1
16,24:6
16,26:6
16,29:6
16,30:7
17,1:5
17,4:15
17,7:7
17,8:8
17,9:5
17,10:14
17,11:2
17,12:5
17,14:5
17,15:12
17,16:8
17,18:3
17,19:9
17,22:9
17,23:12
17,24:14
17,27:6
17,28:2
17,30:15
17,32:3
18,1:2
18,4:12
18,7:4
18,8:5
18,9:2
18,10:11
18,12:2
18,14:2
18,15:9
18,16:5
18,20:5
18,21:5
18,22:6
18,24:11
18,25:4
18,26:11
18,27:3
18,29:11
18,30:12
18,44:3
19,4:6
19,10:5
19,15:3
19,24:5
19,26:5
19,29:5
19,30:6
20,4:7
20,10:6
20,15:4
20,19:1
20,22:1
20,23:4
20,24:6
20,30:7
21,4:7
21,10:6
21,15:4
21,19:1
21,22:1
21,23:4
21,24:6
21,30:7
22,4:6
22,10:5
22,15:3
22,23:3
22,24:5
22,26:5
22,29:5
23,4:3
23,10:2
23,24:2
23,26:2
23,29:2
23,30:3
24,4:1
24,30:1
25,4:8
25,8:1
25,10:7
25,15:5
25,16:1
25,19:2
25,20:1
25,21:1
25,22:2
25,23:5
25,24:7
25,26:7
25,29:7
25,30:8
25,41:5
25,42:5
25,43:5
25,46:1
25,47:1
25,48:1
25,50:6
25,51:6
26,4:1
26,30:1
27,4:9
27,7:1
27,8:2
27,10:8
27,15:6
27,16:2
27,19:3
27,20:2
27,21:2
27,22:3
27,23:6
27,24:8
27,25:1
27,26:8
27,29:8
28,1:3
28,4:13
28,7:5
28,8:6
28,9:3
28,10:12
28,12:3
28,14:3
28,15:10
28,16:6
28,18:1
28,19:7
28,20:6
28,21:6
28,22:7
28,23:10
28,24:12
28,25:5
28,26:12
28,27:4
28,29:12
28,30:13
28,31:1
28,36:1
28,38:5
28,41:10
28,42:10
28,44:4
29,4:1
29,30:1
31,1:2
31,4:12
31,7:4
31,8:5
31,9:2
31,10:11
31,12:2
31,14:2
31,15:9
31,16:5
31,19:6
31,20:5
31,21:5
31,22:6
31,23:9
31,24:11
31,25:4
31,26:11
31,27:3
31,29:11
31,30:12
31,44:3
32,1:2
32,4:12
32,7:4
32,8:5
32,9:2
32,10:11
32,12:2
32,14:2
32,15:9
32,16:5
32,19:6
32,20:5
32,21:5
32,22:6
32,23:9
32,24:11
32,25:4
32,26:11
32,27:3
32,29:11
32,30:12
32,38:4
32,41:9
32,42:9
32,43:9
32,44:3
33,1:6
33,4:16
33,7:8
33,8:9
33,9:6
33,10:15
33,11:3
33,12:6
33,13:1
33,14:6
33,15:13
33,16:9
33,17:1
33,18:4
33,19:10
33,20:9
33,21:9
33,22:10
33,23:13
33,24:15
33,25:8
33,26:15
33,27:7
33,28:3
33,29:15
33,30:16
33,31:4
33,32:4
33,36:4
33,38:8
33,39:1
33,40:1
33,41:13
33,42:13
33,44:7
34,1:8
34,2:2
34,4:18
34,7:10
34,8:11
34,9:8
34,10:17
34,11:5
34,12:8
34,13:3
34,14:8
34,15:15
34,16:11
34,17:3
34,18:6
34,19:12
34,20:11
34,21:11
34,22:12
34,23:15
34,24:17
34,25:10
34,26:17
34,27:9
34,28:5
34,29:17
34,30:18
34,31:6
34,32:6
34,33:2
34,35:2
34,44:9
35,1:6
35,4:16
35,7:8
35,8:9
35,9:6
35,10:15
35,11:3
35,12:6
35,13:1
35,14:6
35,15:13
35,16:9
35,17:1
35,18:4
35,19:10
35,20:9
35,21:9
35,22:10
35,23:13
35,24:15
35,25:8
35,26:15
35,27:7
35,28:3
35,29:15
35,30:16
35,31:4
35,32:4
35,36:4
35,38:8
35,39:1
35,40:1
35,41:13
35,42:13
35,44:7
36,1:2
36,4:12
36,7:4
36,8:5
36,9:2
36,10:11
36,12:2
36,14:2
36,15:9
36,16:5
36,19:6
36,20:5
36,21:5
36,22:6
36,23:9
36,24:11
36,25:4
36,26:11
36,27:3
36,29:11
36,30:12
36,44:3
37,1:6
37,4:16
37,7:8
37,8:9
37,9:6
37,10:15
37,11:3
37,12:6
37,13:1
37,14:6
37,15:13
37,16:9
37,17:1
37,18:4
37,19:10
37,20:9
37,21:9
37,22:10
37,23:13
37,24:15
37,25:8
37,26:15
37,27:7
37,28:3
37,29:15
37,30:16
37,31:4
37,32:4
37,36:4
37,38:8
37,44:7
38,4:8
38,8:1
38,10:7
38,15:5
38,16:1
38,19:2
38,20:1
38,21:1
38,22:2
38,23:5
38,24:7
38,26:7
38,29:7
38,30:8
38,41:5
38,42:5
38,43:5
38,46:1
38,47:1
38,48:1
38,50:6
38,51:6
39,1:5
39,4:15
39,7:7
39,8:8
39,9:5
39,10:14
39,11:2
39,12:5
39,14:5
39,15:12
39,16:8
39,18:3
39,19:9
39,20:8
39,21:8
39,22:9
39,23:12
39,24:14
39,25:7
39,26:14
39,27:6
39,28:2
39,29:14
39,30:15
39,31:3
39,32:3
39,36:3
39,38:7
39,41:12
39,42:12
39,44:6
40,1:5
40,4:15
40,7:7
40,8:8
40,9:5
40,10:14
40,11:2
40,12:5
40,14:5
40,15:12
40,16:8
40,18:3
40,19:9
40,20:8
40,21:8
40,22:9
40,23:12
40,24:14
40,25:7
40,26:14
40,27:6
40,28:2
40,29:14
40,30:15
40,31:3
40,32:3
40,36:3
40,38:7
40,41:12
40,42:12
40,44:6
41,4:3
41,10:2
41,24:2
41,26:2
41,29:2
41,30:3
42,4:3
42,10:2
42,24:2
42,26:2
42,29:2
42,30:3
43,4:3
43,10:2
43,24:2
43,26:2
43,29:2
43,30:3
44,4:9
44,7:1
44,8:2
44,10:8
44,15:6
44,16:2
44,19:3
44,20:2
44,21:2
44,22:3
44,23:6
44,24:8
44,25:1
44,26:8
44,29:8
44,30:9
44,38:1
44,41:6
44,42:6
44,43:6
45,1:5
45,4:15
45,7:7
45,8:8
45,9:5
45,10:14
45,11:2
45,12:5
45,14:5
45,15:12
45,16:8
45,18:3
45,19:9
45,20:8
45,21:8
45,22:9
45,23:12
45,24:14
45,25:7
45,26:14
45,27:6
45,28:2
45,29:14
45,30:15
45,31:3
45,32:3
45,36:3
45,38:7
45,41:12
45,42:12
45,43:12
45,44:6
46,4:7
46,10:6
46,15:4
46,19:1
46,22:1
46,23:4
46,24:6
46,26:6
46,29:6
46,30:7
46,41:4
46,42:4
46,43:4
47,4:7
47,10:6
47,15:4
47,19:1
47,22:1
47,23:4
47,24:6
47,26:6
47,29:6
47,30:7
47,41:4
47,42:4
47,43:4
47,50:5
48,4:7
48,10:6
48,15:4
48,19:1
48,22:1
48,23:4
48,24:6
48,26:6
48,29:6
48,30:7
48,41:4
48,42:4
48,43:4
48,50:5
48,51:5
48,52:5
48,53:8
49,4:8
49,8:1
49,10:7
49,15:5
49,16:1
49,19:2
49,20:1
49,21:1
49,22:2
49,23:5
49,24:7
49,26:7
49,29:7
49,30:8
49,41:5
49,42:5
49,43:5
49,46:1
49,47:1
49,48:1
49,50:6
49,51:6
49,52:6
49,53:9
49,55:7
49,57:7
50,4:2
50,10:1
50,24:1
50,26:1
50,29:1
50,30:2
50,53:3
50,55:1
50,57:1
51,4:2
51,10:1
51,24:1
51,26:1
51,29:1
51,30:2
52,4:2
52,10:1
52,24:1
52,26:1
52,29:1
52,30:2
54,1:2
54,4:12
54,7:4
54,8:5
54,9:2
54,10:11
54,12:2
54,14:2
54,15:9
54,16:5
54,19:6
54,20:5
54,21:5
54,22:6
54,23:9
54,24:11
54,25:4
54,26:11
54,27:3
54,29:11
54,30:12
54,38:4
54,41:9
54,42:9
54,43:9
54,44:3
54,46:5
54,47:5
54,48:5
54,49:4
54,50:10
54,51:10
54,52:10
54,53:13
55,4:1
55,30:1
55,53:2
56,1:2
56,4:12
56,7:4
56,8:5
56,9:2
56,10:11
56,12:2
56,14:2
56,15:9
56,16:5
56,19:6
56,20:5
56,21:5
56,22:6
56,23:9
56,24:11
56,25:4
56,26:11
56,27:3
56,29:11
56,30:12
56,38:4
56,41:9
56,42:9
56,43:9
56,44:3
56,46:5
56,47:5
56,48:5
56,49:4
56,50:10
56,51:10
56,52:10
56,53:13
56,55:11
57,4:1
57,30:1
57,53:2
58,4:1
58,30:1
58,53:2

<end>

<optimal SALBP-1 value>
29


<rand seed>
467321153

